num_offers = 40;
num_halls = 10;
start=[1,28,34,37,39,15,60,63,5,1,28,67,6,10,5,62,3,14,12,9,43,3,41,92,2,69,43,7,8,83,76,29,25,57,84,12,28,51,61,43];
end=[27,49,37,75,87,64,90,74,49,44,54,77,98,84,29,78,42,22,99,36,83,44,96,99,94,77,78,25,88,97,77,74,78,81,94,48,58,92,73,68];
price=[2067,397,69,1047,2251,3525,1977,932,1484,3007,845,339,1366,3584,1058,830,1557,129,1392,1636,2639,1630,1630,254,5680,462,1869,858,2742,168,79,576,2103,2119,214,1259,2749,1439,1104,1587];
requirement=[335,568,421,721,842,587,295,785,581,485,800,926,983,334,889,865,735,342,486,256,238,714,651,664,297,684,759,452,258,435,232,652,646,398,700,530,508,329,625,302];
capacity=[886,987,818,833,898,606,201,567,553,475];
